
  32    1
  10

   0   0   5 2 3 4 5 6 
   8   1   4 10 9 8 7 
   3   1   3 10 9 7 
   1   1   3 10 8 7 
   7   3   4 16 13 11 10 
   3   2   4 16 13 11 10 
   3   1   4 16 14 13 11 
   1   3   4 16 14 13 11 
   5   2   3 18 14 12 
   6   1   4 18 17 15 14 
  10   3   4 24 18 17 15 
   1   1   3 24 17 15 
  10   2   2 24 15 
   5   1   6 24 23 22 21 20 19 
   4   2   5 23 22 21 20 19 
   7   2   2 19 17 
   2   1   3 23 22 20 
   3   2   2 23 19 
   1   4   4 31 30 27 26 
   9   3   4 31 30 27 26 
   9   3   4 31 30 27 26 
  10   5   2 31 25 
   7   3   3 31 30 27 
   3   2   3 30 29 27 
   1   1   2 29 27 
   6   1   2 29 28 
   3   1   1 28 
   8   1   1 32
   5   3   1 32
   7   2   1 32
  10   2   1 32
   0   0   0 
